/*********************************************
 * OPL 12.9.0.0 Data
 * Author: Administrator
 * Creation Date: 2019年10月5日 at 下午4:25:47
 *********************************************/
nbJobs =5;
nbStages =5;
nbMach =[0,3,2,2,2,2];
nbWork =[0,2,2,2,2,2];
allMach =[0,3,5,7,9,11];
B=10000;
OpDurations = [
[22,30,37,28,38,18,18,58,97,27,33],
[37,41,47,59,83,20,28,31,31,3,4],
[62,67,93,8,8,70,75,77,92,14,16],
[12,14,15,21,23,44,48,4,4,2,2],
[89,109,118,30,41,10,12,65,66,92,108]
];
OpDue = [565,514,762,500,952];

 